experiment/data/lkh-res/Vrp-Set-X-n459/Vrp-Set-X-n459-lkh/0.lkh1.vrp
NAME : 0
COMMENT : CVRP Instance
TYPE : CVRP
DIMENSION : 459
EDGE_WEIGHT_TYPE : EUC_2D
CAPACITY : 1106
NODE_COORD_SECTION
1	50000	50000
2	83200	88500
3	77700	63200
4	40600	25700
5	62000	46700
6	34300	16600
7	35500	34500
8	39300	29900
9	63100	76700
10	38400	34000
11	64300	63000
12	78600	59300
13	78900	72700
14	44300	20500
15	67900	40800
16	84500	53500
17	73200	82000
18	89000	86100
19	64500	68900
20	80000	51700
21	95100	64300
22	82800	74600
23	86200	62500
24	60600	43200
25	67200	98400
26	58000	33800
27	62900	49400
28	80900	66300
29	73800	59500
30	60400	32000
31	64500	53200
32	68800	72800
33	39000	68000
34	84200	51700
35	52500	40400
36	69700	71900
37	83700	85300
38	74100	58500
39	62800	50600
40	35400	28000
41	72600	83400
42	72100	63500
43	44800	36300
44	96300	70200
45	57000	48400
46	38900	28100
47	70800	38000
48	52200	43900
49	77100	52300
50	77800	64500
51	40200	31800
52	81700	71700
53	73000	65500
54	81400	92500
55	74300	36200
56	56800	29800
57	55500	13200
58	93700	63700
59	54200	67800
60	82200	85400
61	71100	69700
62	60300	31000
63	86400	67400
64	85000	87900
65	28000	19800
66	50200	41700
67	76400	61000
68	72900	82200
69	30700	25800
70	89600	95800
71	77400	73200
72	68400	44600
73	69100	79300
74	90500	88800
75	66400	41100
76	87500	98100
77	47700	22600
78	60700	62400
79	82300	87500
80	55800	54300
81	41000	23700
82	71200	69200
83	80400	67800
84	49100	31700
85	47500	28000
86	88100	87200
87	37100	26900
88	52000	56200
89	59000	43100
90	42000	24500
91	81100	64700
92	50100	50700
93	68400	64700
94	73900	96900
95	85400	71700
96	84400	26800
97	52000	82300
98	86600	96600
99	72000	64500
100	56400	49300
101	65300	54100
102	83100	75800
103	69400	80400
104	66100	46900
105	41700	25100
106	68300	36400
107	64800	47900
108	25500	22500
109	83600	93400
110	81100	96000
111	88800	49200
112	11100	26100
113	86600	82700
114	82200	87600
115	67200	41900
116	75000	97400
117	54500	42000
118	14000	26700
119	92500	74900
120	50500	28200
121	70100	47700
122	42700	27200
123	29300	24200
124	75700	92900
125	85600	86100
126	84800	80900
127	33100	21400
128	68200	48000
129	80400	63800
130	34900	23400
131	42600	19400
132	49900	34800
133	69200	70000
134	33100	31800
135	73800	64400
136	96700	90000
137	60400	56300
138	70100	54000
139	52300	42900
140	83400	88000
141	71400	64400
142	36900	22200
143	72000	56600
144	60600	51200
145	84000	92600
146	78600	35400
147	66700	70900
148	67000	50800
149	45600	20200
150	82700	68700
151	87100	80000
152	55600	83700
153	81000	58900
154	53700	36000
155	45600	27500
156	68800	21400
157	34600	16300
158	88000	56900
159	36000	21500
160	84900	68600
161	61700	42000
162	30800	46600
163	73400	53400
164	88000	63800
165	75100	76300
166	61600	48500
167	71900	74400
168	37100	34600
169	37900	42000
170	56500	52400
171	37700	13800
172	86400	72100
173	82300	53500
174	36700	21800
175	61400	76100
176	65900	38300
177	86700	91000
178	71700	89500
179	86500	79300
180	58800	66300
181	59500	48800
182	40800	26800
183	71300	86300
184	65200	40900
185	92000	39400
186	81900	36700
187	65300	42500
188	61800	42500
189	65700	29000
190	70900	83900
191	73900	54100
192	90900	73200
193	37300	21800
194	37500	28300
195	27800	39100
196	84300	87300
197	44300	22900
198	75600	70200
199	36500	29300
200	82100	63700
201	47700	19100
202	40100	10200
203	35900	29000
204	79100	75100
205	93800	78700
206	70900	46900
207	32900	17800
208	55900	54300
209	91600	88200
210	75800	63500
211	85500	71000
212	79700	78300
213	42800	23800
214	80200	82300
215	73000	54200
216	79700	46400
217	21700	2900
218	93900	74500
219	91100	88900
220	82900	67900
221	67800	52300
222	70900	22400
223	55000	42900
224	82100	93300
225	79800	48200
226	68600	61500
227	73500	65800
228	72800	53100
229	73600	45200
230	72100	45900
231	81800	37700
232	42100	47900
233	76800	52400
234	49800	44100
235	60100	45400
236	85100	57400
237	66200	51100
238	52600	27900
239	44700	60100
240	88900	61000
241	89100	93000
242	48300	27800
243	72800	84500
244	45100	29900
245	30800	21500
246	64300	48600
247	75800	96300
248	43900	45800
249	83000	60800
250	38700	23300
251	83700	94800
252	56100	41000
253	72100	43900
254	77800	64000
255	82600	62700
256	64400	72400
257	51500	46500
258	72800	65100
259	66600	47400
260	75900	9400
261	52500	41900
262	92700	69200
263	59700	22800
264	44800	21800
265	57500	34900
266	92100	88300
267	40600	17200
268	84000	84700
269	78700	66000
270	30100	54500
271	66800	88000
272	59400	41600
273	79100	86100
274	74000	58100
275	43800	27200
276	50000	25900
277	60000	46400
278	96500	41200
279	61400	56800
280	82900	64400
281	55600	51800
282	66000	67600
283	52500	79300
284	62300	48200
285	36900	19500
286	80500	66800
287	82000	93600
288	87900	88600
289	71300	67900
290	72800	59700
291	83300	71900
292	72000	47300
293	74400	56900
294	73900	53900
295	64400	44600
296	89600	85000
297	39300	28400
298	70800	58600
299	69400	61200
300	44600	16200
301	38300	21300
302	73800	66900
303	72600	70200
304	74900	64100
305	49900	39700
306	33500	41600
307	82800	95100
308	63400	36800
309	72000	55900
310	42800	27200
311	66400	22600
312	77200	62600
313	60200	46600
314	59200	39400
315	62700	40800
316	75400	63700
317	64300	57200
318	69900	16700
319	88000	86700
320	49300	30500
321	69800	63000
322	81900	64000
323	81900	57700
324	86000	86600
325	30300	32600
326	52300	47000
327	78000	64700
328	63000	57900
329	89300	57800
330	54500	46500
331	78200	72300
332	63900	60900
333	31300	26700
334	81000	89300
335	40700	30700
336	80800	66600
337	62100	42700
338	84100	94300
339	76100	60200
340	51300	34000
341	33500	15000
342	80700	56400
343	71500	93600
344	81800	83400
345	88100	87000
346	30000	67900
347	62800	40200
348	69700	55100
349	34200	37300
350	81900	85900
351	83000	95500
352	65100	49300
353	37800	24800
354	67500	42400
355	70000	7600
356	39800	30300
357	89000	37300
358	79900	62300
359	81200	80600
360	77000	86000
361	77600	71100
362	66100	83900
363	82900	89500
364	39200	22700
365	89100	56500
366	56900	48900
367	82400	71600
368	82700	43600
369	38000	21700
370	52700	37600
371	83800	85500
372	53700	43200
373	46800	19500
374	71400	80700
375	55300	10400
376	44800	33100
377	84600	86300
378	81500	68900
379	63900	33200
380	74800	36500
381	57700	44200
382	57200	46100
383	43100	30400
384	73100	68800
385	41500	25600
386	93300	68700
387	46100	39200
388	82700	90600
389	78600	73700
390	82500	37500
391	58300	51300
392	79300	63200
393	54000	37400
394	60400	44500
395	30300	29300
396	80200	53400
397	44300	30800
398	29800	11800
399	50000	35300
400	81800	89200
401	48700	44400
402	74400	65700
403	70100	54700
404	29700	23700
405	66000	43600
406	58000	45000
407	59100	41100
408	87700	90500
409	37700	31400
410	86800	81900
411	75000	85700
412	64300	33600
413	77000	60900
414	87300	54700
415	74600	94900
416	77100	41800
417	73600	78800
418	67600	52100
419	93400	91900
420	67300	49300
421	81700	91400
422	49300	2800
423	32200	22700
424	74600	61700
425	75400	95000
426	52300	29600
427	67500	48800
428	86000	84800
429	46600	25100
430	77200	30700
431	39600	23500
432	79600	97600
433	79200	64600
434	41700	26700
435	87100	53600
436	28500	20500
437	47400	25700
438	85400	64800
439	60200	26200
440	95000	82100
441	69800	63300
442	76000	95700
443	41800	29200
444	69000	60200
445	66900	68300
446	56500	56200
447	83200	81100
448	79700	72200
449	59400	64600
450	59700	35800
451	94400	83400
452	77600	61000
453	71900	44100
454	83200	90800
455	70200	37800
456	60400	49400
457	75700	83200
458	64700	40000
459	60100	70600
DEMAND_SECTION
1	0
2	71
3	54
4	74
5	9
6	91
7	98
8	72
9	67
10	70
11	68
12	92
13	93
14	97
15	23
16	75
17	61
18	91
19	61
20	89
21	70
22	63
23	93
24	18
25	65
26	33
27	11
28	80
29	88
30	7
31	71
32	68
33	38
34	79
35	28
36	63
37	99
38	99
39	94
40	69
41	78
42	76
43	90
44	57
45	29
46	82
47	42
48	18
49	58
50	89
51	85
52	66
53	57
54	75
55	1
56	49
57	8
58	51
59	67
60	58
61	66
62	13
63	69
64	85
65	53
66	30
67	67
68	79
69	79
70	90
71	81
72	33
73	80
74	78
75	6
76	93
77	60
78	60
79	83
80	97
81	76
82	60
83	94
84	59
85	72
86	58
87	59
88	97
89	11
90	70
91	90
92	54
93	73
94	61
95	52
96	46
97	77
98	60
99	100
100	10
101	100
102	76
103	67
104	45
105	84
106	14
107	49
108	61
109	97
110	55
111	9
112	52
113	99
114	83
115	26
116	85
117	43
118	74
119	98
120	28
121	5
122	66
123	71
124	58
125	90
126	75
127	59
128	3
129	95
130	62
131	54
132	78
133	93
134	54
135	57
136	100
137	89
138	72
139	19
140	55
141	81
142	86
143	64
144	87
145	97
146	7
147	75
148	76
149	98
150	68
151	67
152	59
153	76
154	27
155	67
156	50
157	72
158	91
159	54
160	54
161	11
162	55
163	62
164	89
165	61
166	19
167	79
168	71
169	56
170	75
171	97
172	51
173	93
174	54
175	93
176	47
177	95
178	67
179	77
180	93
181	26
182	82
183	78
184	17
185	29
186	25
187	22
188	22
189	4
190	100
191	71
192	93
193	84
194	51
195	94
196	74
197	59
198	62
199	81
200	73
201	91
202	98
203	56
204	92
205	95
206	20
207	99
208	53
209	74
210	75
211	63
212	86
213	53
214	62
215	93
216	29
217	73
218	99
219	74
220	69
221	51
222	29
223	10
224	56
225	33
226	92
227	90
228	58
229	15
230	3
231	20
232	59
233	98
234	91
235	14
236	53
237	52
238	37
239	47
240	79
241	92
242	90
243	54
244	95
245	66
246	2
247	80
248	74
249	62
250	70
251	75
252	11
253	9
254	99
255	63
256	89
257	6
258	90
259	29
260	18
261	16
262	97
263	6
264	100
265	46
266	85
267	95
268	78
269	83
270	45
271	53
272	34
273	89
274	87
275	92
276	24
277	38
278	39
279	85
280	81
281	73
282	51
283	62
284	49
285	67
286	73
287	73
288	91
289	82
290	57
291	77
292	48
293	71
294	83
295	15
296	54
297	73
298	80
299	77
300	65
301	51
302	67
303	96
304	53
305	94
306	73
307	78
308	37
309	97
310	64
311	23
312	55
313	30
314	43
315	35
316	76
317	65
318	9
319	68
320	60
321	57
322	97
323	63
324	51
325	65
326	46
327	70
328	63
329	86
330	15
331	90
332	62
333	62
334	56
335	63
336	93
337	31
338	90
339	58
340	10
341	100
342	67
343	78
344	94
345	91
346	11
347	19
348	52
349	52
350	54
351	87
352	41
353	77
354	21
355	37
356	61
357	32
358	86
359	67
360	59
361	53
362	82
363	55
364	63
365	62
366	25
367	59
368	24
369	65
370	22
371	90
372	7
373	67
374	86
375	19
376	93
377	80
378	63
379	34
380	1
381	14
382	1
383	87
384	63
385	55
386	94
387	59
388	62
389	71
390	37
391	79
392	83
393	50
394	46
395	76
396	65
397	95
398	71
399	21
400	100
401	66
402	97
403	80
404	100
405	34
406	5
407	32
408	76
409	78
410	94
411	53
412	36
413	73
414	85
415	55
416	31
417	66
418	98
419	94
420	1
421	60
422	93
423	67
424	85
425	76
426	16
427	32
428	76
429	65
430	8
431	68
432	54
433	58
434	92
435	64
436	85
437	66
438	64
439	4
440	57
441	73
442	88
443	89
444	72
445	73
446	89
447	74
448	56
449	79
450	41
451	62
452	59
453	28
454	72
455	31
456	45
457	80
458	48
459	99
DEPOT_SECTION
1
-1
EOF
