experiment/data/lkh-res/Vrp-Set-X-n459/Vrp-Set-X-n459-lkh/0.lkh1.log
PARAMETER_FILE = baseline_results/cvrp_lkh/Vrp-Set-X-n459/Vrp-Set-X-n459-lkh/0.lkh1.par
Reading PROBLEM_FILE: "baseline_results/cvrp_lkh/Vrp-Set-X-n459/Vrp-Set-X-n459-lkh/0.lkh1.vrp" ... done
ASCENT_CANDIDATES = 50
BACKBONE_TRIALS = 0
BACKTRACKING = NO
# BWTSP =
# CANDIDATE_FILE =
CANDIDATE_SET_TYPE = ALPHA
# DISTANCE =
DEPOT = 1
# EDGE_FILE =
EXCESS = 0.00217865
EXTERNAL_SALESMEN = 0
EXTRA_CANDIDATES = 0 
EXTRA_CANDIDATE_SET_TYPE = QUADRANT
GAIN23 = NO
GAIN_CRITERION = YES
INITIAL_PERIOD = 229
INITIAL_STEP_SIZE = 1
INITIAL_TOUR_ALGORITHM = WALK
# INITIAL_TOUR_FILE = 
INITIAL_TOUR_FRACTION = 1.000
# INPUT_TOUR_FILE = 
KICK_TYPE = 4
KICKS = 1
# MAX_BREADTH =
MAKESPAN = NO
MAX_CANDIDATES = 5 
MAX_SWAPS = 0
MAX_TRIALS = 10000
# MERGE_TOUR_FILE =
MOVE_TYPE = 5 SPECIAL
MTSP_MIN_SIZE = 1
MTSP_MAX_SIZE = 458
# MTSP_SOLUTION_FILE = 
# NONSEQUENTIAL_MOVE_TYPE = 5
# OPTIMUM =
OUTPUT_TOUR_FILE = baseline_results/cvrp_lkh/Vrp-Set-X-n459/Vrp-Set-X-n459-lkh/0.lkh1.tour
PATCHING_A = 1 
PATCHING_C = 0 
# PI_FILE = 
POPMUSIC_INITIAL_TOUR = NO
POPMUSIC_MAX_NEIGHBORS = 5
POPMUSIC_SAMPLE_SIZE = 10
POPMUSIC_SOLUTIONS = 50
POPMUSIC_TRIALS = 1
POPULATION_SIZE = 10
PRECISION = 100
PROBLEM_FILE = baseline_results/cvrp_lkh/Vrp-Set-X-n459/Vrp-Set-X-n459-lkh/0.lkh1.vrp
RECOMBINATION = IPT
RESTRICTED_SEARCH = YES
RUNS = 1
SALESMEN = 26
SCALE = 1
SEED = 1234
# SINTEF_SOLUTION_FILE = 
STOP_AT_OPTIMUM = YES
SUBGRADIENT = YES
# SUBPROBLEM_SIZE =
# SUBPROBLEM_TOUR_FILE = 
SUBSEQUENT_MOVE_TYPE = 5 SPECIAL
SUBSEQUENT_PATCHING = YES
# TIME_LIMIT =
# TOTAL_TIME_LIMIT =
# TOUR_FILE = 
TRACE_LEVEL = 1
VEHICLES = 26

Lower bound = 1388442.7, Ascent time = 0.25 sec.
Cand.min = 3, Cand.avg = 5.0, Cand.max = 5
Preprocessing time = 0.25 sec.
* 1: Cost = 0_3091528, Time = 0.29 sec. 
Writing OUTPUT_TOUR_FILE: "baseline_results/cvrp_lkh/Vrp-Set-X-n459/Vrp-Set-X-n459-lkh/0.lkh1.tour" ... done
* 3: Cost = 0_3071135, Time = 0.34 sec. 
Writing OUTPUT_TOUR_FILE: "baseline_results/cvrp_lkh/Vrp-Set-X-n459/Vrp-Set-X-n459-lkh/0.lkh1.tour" ... done
* 4: Cost = 0_3039068, Time = 0.35 sec. 
Writing OUTPUT_TOUR_FILE: "baseline_results/cvrp_lkh/Vrp-Set-X-n459/Vrp-Set-X-n459-lkh/0.lkh1.tour" ... done
* 5: Cost = 0_3038780, Time = 0.36 sec. 
Writing OUTPUT_TOUR_FILE: "baseline_results/cvrp_lkh/Vrp-Set-X-n459/Vrp-Set-X-n459-lkh/0.lkh1.tour" ... done
* 8: Cost = 0_3036922, Time = 0.36 sec. 
Writing OUTPUT_TOUR_FILE: "baseline_results/cvrp_lkh/Vrp-Set-X-n459/Vrp-Set-X-n459-lkh/0.lkh1.tour" ... done
* 9: Cost = 0_2944996, Time = 0.40 sec. 
Writing OUTPUT_TOUR_FILE: "baseline_results/cvrp_lkh/Vrp-Set-X-n459/Vrp-Set-X-n459-lkh/0.lkh1.tour" ... done
* 11: Cost = 0_2944522, Time = 0.42 sec. 
Writing OUTPUT_TOUR_FILE: "baseline_results/cvrp_lkh/Vrp-Set-X-n459/Vrp-Set-X-n459-lkh/0.lkh1.tour" ... done
* 12: Cost = 0_2928891, Time = 0.43 sec. 
Writing OUTPUT_TOUR_FILE: "baseline_results/cvrp_lkh/Vrp-Set-X-n459/Vrp-Set-X-n459-lkh/0.lkh1.tour" ... done
* 14: Cost = 0_2886568, Time = 0.45 sec. 
Writing OUTPUT_TOUR_FILE: "baseline_results/cvrp_lkh/Vrp-Set-X-n459/Vrp-Set-X-n459-lkh/0.lkh1.tour" ... done
* 16: Cost = 0_2822180, Time = 0.50 sec. 
Writing OUTPUT_TOUR_FILE: "baseline_results/cvrp_lkh/Vrp-Set-X-n459/Vrp-Set-X-n459-lkh/0.lkh1.tour" ... done
* 17: Cost = 0_2805680, Time = 0.52 sec. 
Writing OUTPUT_TOUR_FILE: "baseline_results/cvrp_lkh/Vrp-Set-X-n459/Vrp-Set-X-n459-lkh/0.lkh1.tour" ... done
* 18: Cost = 0_2742732, Time = 0.58 sec. 
Writing OUTPUT_TOUR_FILE: "baseline_results/cvrp_lkh/Vrp-Set-X-n459/Vrp-Set-X-n459-lkh/0.lkh1.tour" ... done
* 20: Cost = 0_2734293, Time = 0.65 sec. 
Writing OUTPUT_TOUR_FILE: "baseline_results/cvrp_lkh/Vrp-Set-X-n459/Vrp-Set-X-n459-lkh/0.lkh1.tour" ... done
* 21: Cost = 0_2692944, Time = 0.69 sec. 
Writing OUTPUT_TOUR_FILE: "baseline_results/cvrp_lkh/Vrp-Set-X-n459/Vrp-Set-X-n459-lkh/0.lkh1.tour" ... done
* 22: Cost = 0_2685678, Time = 0.69 sec. 
Writing OUTPUT_TOUR_FILE: "baseline_results/cvrp_lkh/Vrp-Set-X-n459/Vrp-Set-X-n459-lkh/0.lkh1.tour" ... done
* 25: Cost = 0_2675787, Time = 0.82 sec. 
Writing OUTPUT_TOUR_FILE: "baseline_results/cvrp_lkh/Vrp-Set-X-n459/Vrp-Set-X-n459-lkh/0.lkh1.tour" ... done
* 26: Cost = 0_2645065, Time = 0.86 sec. 
Writing OUTPUT_TOUR_FILE: "baseline_results/cvrp_lkh/Vrp-Set-X-n459/Vrp-Set-X-n459-lkh/0.lkh1.tour" ... done
* 29: Cost = 0_2641341, Time = 1.00 sec. 
Writing OUTPUT_TOUR_FILE: "baseline_results/cvrp_lkh/Vrp-Set-X-n459/Vrp-Set-X-n459-lkh/0.lkh1.tour" ... done
* 35: Cost = 0_2637073, Time = 1.16 sec. 
Writing OUTPUT_TOUR_FILE: "baseline_results/cvrp_lkh/Vrp-Set-X-n459/Vrp-Set-X-n459-lkh/0.lkh1.tour" ... done
* 36: Cost = 0_2631475, Time = 1.16 sec. 
Writing OUTPUT_TOUR_FILE: "baseline_results/cvrp_lkh/Vrp-Set-X-n459/Vrp-Set-X-n459-lkh/0.lkh1.tour" ... done
* 37: Cost = 0_2631398, Time = 1.17 sec. 
Writing OUTPUT_TOUR_FILE: "baseline_results/cvrp_lkh/Vrp-Set-X-n459/Vrp-Set-X-n459-lkh/0.lkh1.tour" ... done
* 56: Cost = 0_2630203, Time = 1.69 sec. 
Writing OUTPUT_TOUR_FILE: "baseline_results/cvrp_lkh/Vrp-Set-X-n459/Vrp-Set-X-n459-lkh/0.lkh1.tour" ... done
* 61: Cost = 0_2627017, Time = 1.91 sec. 
Writing OUTPUT_TOUR_FILE: "baseline_results/cvrp_lkh/Vrp-Set-X-n459/Vrp-Set-X-n459-lkh/0.lkh1.tour" ... done
* 71: Cost = 0_2618305, Time = 2.09 sec. 
Writing OUTPUT_TOUR_FILE: "baseline_results/cvrp_lkh/Vrp-Set-X-n459/Vrp-Set-X-n459-lkh/0.lkh1.tour" ... done
* 72: Cost = 0_2618027, Time = 2.11 sec. 
Writing OUTPUT_TOUR_FILE: "baseline_results/cvrp_lkh/Vrp-Set-X-n459/Vrp-Set-X-n459-lkh/0.lkh1.tour" ... done
* 74: Cost = 0_2612982, Time = 2.17 sec. 
Writing OUTPUT_TOUR_FILE: "baseline_results/cvrp_lkh/Vrp-Set-X-n459/Vrp-Set-X-n459-lkh/0.lkh1.tour" ... done
* 80: Cost = 0_2608673, Time = 2.22 sec. 
Writing OUTPUT_TOUR_FILE: "baseline_results/cvrp_lkh/Vrp-Set-X-n459/Vrp-Set-X-n459-lkh/0.lkh1.tour" ... done
* 86: Cost = 0_2600753, Time = 2.50 sec. 
Writing OUTPUT_TOUR_FILE: "baseline_results/cvrp_lkh/Vrp-Set-X-n459/Vrp-Set-X-n459-lkh/0.lkh1.tour" ... done
* 114: Cost = 0_2600384, Time = 3.40 sec. 
Writing OUTPUT_TOUR_FILE: "baseline_results/cvrp_lkh/Vrp-Set-X-n459/Vrp-Set-X-n459-lkh/0.lkh1.tour" ... done
* 117: Cost = 0_2598279, Time = 3.51 sec. 
Writing OUTPUT_TOUR_FILE: "baseline_results/cvrp_lkh/Vrp-Set-X-n459/Vrp-Set-X-n459-lkh/0.lkh1.tour" ... done
* 127: Cost = 0_2596786, Time = 3.69 sec. 
Writing OUTPUT_TOUR_FILE: "baseline_results/cvrp_lkh/Vrp-Set-X-n459/Vrp-Set-X-n459-lkh/0.lkh1.tour" ... done
* 134: Cost = 0_2596169, Time = 3.93 sec. 
Writing OUTPUT_TOUR_FILE: "baseline_results/cvrp_lkh/Vrp-Set-X-n459/Vrp-Set-X-n459-lkh/0.lkh1.tour" ... done
* 150: Cost = 0_2587644, Time = 4.21 sec. 
Writing OUTPUT_TOUR_FILE: "baseline_results/cvrp_lkh/Vrp-Set-X-n459/Vrp-Set-X-n459-lkh/0.lkh1.tour" ... done
* 155: Cost = 0_2587542, Time = 4.30 sec. 
Writing OUTPUT_TOUR_FILE: "baseline_results/cvrp_lkh/Vrp-Set-X-n459/Vrp-Set-X-n459-lkh/0.lkh1.tour" ... done
* 185: Cost = 0_2587535, Time = 4.88 sec. 
Writing OUTPUT_TOUR_FILE: "baseline_results/cvrp_lkh/Vrp-Set-X-n459/Vrp-Set-X-n459-lkh/0.lkh1.tour" ... done
* 193: Cost = 0_2585130, Time = 5.06 sec. 
Writing OUTPUT_TOUR_FILE: "baseline_results/cvrp_lkh/Vrp-Set-X-n459/Vrp-Set-X-n459-lkh/0.lkh1.tour" ... done
* 205: Cost = 0_2577184, Time = 5.18 sec. 
Writing OUTPUT_TOUR_FILE: "baseline_results/cvrp_lkh/Vrp-Set-X-n459/Vrp-Set-X-n459-lkh/0.lkh1.tour" ... done
* 209: Cost = 0_2574587, Time = 5.25 sec. 
Writing OUTPUT_TOUR_FILE: "baseline_results/cvrp_lkh/Vrp-Set-X-n459/Vrp-Set-X-n459-lkh/0.lkh1.tour" ... done
* 219: Cost = 0_2574381, Time = 5.51 sec. 
Writing OUTPUT_TOUR_FILE: "baseline_results/cvrp_lkh/Vrp-Set-X-n459/Vrp-Set-X-n459-lkh/0.lkh1.tour" ... done
* 222: Cost = 0_2571360, Time = 5.60 sec. 
Writing OUTPUT_TOUR_FILE: "baseline_results/cvrp_lkh/Vrp-Set-X-n459/Vrp-Set-X-n459-lkh/0.lkh1.tour" ... done
* 224: Cost = 0_2569268, Time = 5.72 sec. 
Writing OUTPUT_TOUR_FILE: "baseline_results/cvrp_lkh/Vrp-Set-X-n459/Vrp-Set-X-n459-lkh/0.lkh1.tour" ... done
* 226: Cost = 0_2568500, Time = 5.74 sec. 
Writing OUTPUT_TOUR_FILE: "baseline_results/cvrp_lkh/Vrp-Set-X-n459/Vrp-Set-X-n459-lkh/0.lkh1.tour" ... done
* 231: Cost = 0_2567347, Time = 5.86 sec. 
Writing OUTPUT_TOUR_FILE: "baseline_results/cvrp_lkh/Vrp-Set-X-n459/Vrp-Set-X-n459-lkh/0.lkh1.tour" ... done
* 233: Cost = 0_2561583, Time = 5.90 sec. 
Writing OUTPUT_TOUR_FILE: "baseline_results/cvrp_lkh/Vrp-Set-X-n459/Vrp-Set-X-n459-lkh/0.lkh1.tour" ... done
* 235: Cost = 0_2560058, Time = 5.96 sec. 
Writing OUTPUT_TOUR_FILE: "baseline_results/cvrp_lkh/Vrp-Set-X-n459/Vrp-Set-X-n459-lkh/0.lkh1.tour" ... done
* 259: Cost = 0_2558657, Time = 6.63 sec. 
Writing OUTPUT_TOUR_FILE: "baseline_results/cvrp_lkh/Vrp-Set-X-n459/Vrp-Set-X-n459-lkh/0.lkh1.tour" ... done
* 280: Cost = 0_2558515, Time = 7.08 sec. 
Writing OUTPUT_TOUR_FILE: "baseline_results/cvrp_lkh/Vrp-Set-X-n459/Vrp-Set-X-n459-lkh/0.lkh1.tour" ... done
* 322: Cost = 0_2557023, Time = 7.99 sec. 
Writing OUTPUT_TOUR_FILE: "baseline_results/cvrp_lkh/Vrp-Set-X-n459/Vrp-Set-X-n459-lkh/0.lkh1.tour" ... done
* 335: Cost = 0_2556624, Time = 8.19 sec. 
Writing OUTPUT_TOUR_FILE: "baseline_results/cvrp_lkh/Vrp-Set-X-n459/Vrp-Set-X-n459-lkh/0.lkh1.tour" ... done
* 340: Cost = 0_2555707, Time = 8.28 sec. 
Writing OUTPUT_TOUR_FILE: "baseline_results/cvrp_lkh/Vrp-Set-X-n459/Vrp-Set-X-n459-lkh/0.lkh1.tour" ... done
* 346: Cost = 0_2551868, Time = 8.33 sec. 
Writing OUTPUT_TOUR_FILE: "baseline_results/cvrp_lkh/Vrp-Set-X-n459/Vrp-Set-X-n459-lkh/0.lkh1.tour" ... done
* 356: Cost = 0_2550563, Time = 8.54 sec. 
Writing OUTPUT_TOUR_FILE: "baseline_results/cvrp_lkh/Vrp-Set-X-n459/Vrp-Set-X-n459-lkh/0.lkh1.tour" ... done
* 368: Cost = 0_2550255, Time = 8.73 sec. 
Writing OUTPUT_TOUR_FILE: "baseline_results/cvrp_lkh/Vrp-Set-X-n459/Vrp-Set-X-n459-lkh/0.lkh1.tour" ... done
* 401: Cost = 0_2550046, Time = 9.52 sec. 
Writing OUTPUT_TOUR_FILE: "baseline_results/cvrp_lkh/Vrp-Set-X-n459/Vrp-Set-X-n459-lkh/0.lkh1.tour" ... done
* 416: Cost = 0_2549674, Time = 10.03 sec. 
Writing OUTPUT_TOUR_FILE: "baseline_results/cvrp_lkh/Vrp-Set-X-n459/Vrp-Set-X-n459-lkh/0.lkh1.tour" ... done
* 421: Cost = 0_2549191, Time = 10.12 sec. 
Writing OUTPUT_TOUR_FILE: "baseline_results/cvrp_lkh/Vrp-Set-X-n459/Vrp-Set-X-n459-lkh/0.lkh1.tour" ... done
* 441: Cost = 0_2547357, Time = 10.36 sec. 
Writing OUTPUT_TOUR_FILE: "baseline_results/cvrp_lkh/Vrp-Set-X-n459/Vrp-Set-X-n459-lkh/0.lkh1.tour" ... done
* 442: Cost = 0_2546237, Time = 10.38 sec. 
Writing OUTPUT_TOUR_FILE: "baseline_results/cvrp_lkh/Vrp-Set-X-n459/Vrp-Set-X-n459-lkh/0.lkh1.tour" ... done
* 461: Cost = 0_2546072, Time = 10.84 sec. 
Writing OUTPUT_TOUR_FILE: "baseline_results/cvrp_lkh/Vrp-Set-X-n459/Vrp-Set-X-n459-lkh/0.lkh1.tour" ... done
* 465: Cost = 0_2544383, Time = 10.90 sec. 
Writing OUTPUT_TOUR_FILE: "baseline_results/cvrp_lkh/Vrp-Set-X-n459/Vrp-Set-X-n459-lkh/0.lkh1.tour" ... done
* 472: Cost = 0_2542692, Time = 10.99 sec. 
Writing OUTPUT_TOUR_FILE: "baseline_results/cvrp_lkh/Vrp-Set-X-n459/Vrp-Set-X-n459-lkh/0.lkh1.tour" ... done
* 504: Cost = 0_2539627, Time = 11.60 sec. 
Writing OUTPUT_TOUR_FILE: "baseline_results/cvrp_lkh/Vrp-Set-X-n459/Vrp-Set-X-n459-lkh/0.lkh1.tour" ... done
* 540: Cost = 0_2539239, Time = 12.37 sec. 
Writing OUTPUT_TOUR_FILE: "baseline_results/cvrp_lkh/Vrp-Set-X-n459/Vrp-Set-X-n459-lkh/0.lkh1.tour" ... done
* 543: Cost = 0_2538013, Time = 12.44 sec. 
Writing OUTPUT_TOUR_FILE: "baseline_results/cvrp_lkh/Vrp-Set-X-n459/Vrp-Set-X-n459-lkh/0.lkh1.tour" ... done
* 548: Cost = 0_2528012, Time = 12.49 sec. 
Writing OUTPUT_TOUR_FILE: "baseline_results/cvrp_lkh/Vrp-Set-X-n459/Vrp-Set-X-n459-lkh/0.lkh1.tour" ... done
* 560: Cost = 0_2526739, Time = 12.86 sec. 
Writing OUTPUT_TOUR_FILE: "baseline_results/cvrp_lkh/Vrp-Set-X-n459/Vrp-Set-X-n459-lkh/0.lkh1.tour" ... done
* 566: Cost = 0_2526296, Time = 12.91 sec. 
Writing OUTPUT_TOUR_FILE: "baseline_results/cvrp_lkh/Vrp-Set-X-n459/Vrp-Set-X-n459-lkh/0.lkh1.tour" ... done
* 588: Cost = 0_2525798, Time = 13.47 sec. 
Writing OUTPUT_TOUR_FILE: "baseline_results/cvrp_lkh/Vrp-Set-X-n459/Vrp-Set-X-n459-lkh/0.lkh1.tour" ... done
* 590: Cost = 0_2524529, Time = 13.48 sec. 
Writing OUTPUT_TOUR_FILE: "baseline_results/cvrp_lkh/Vrp-Set-X-n459/Vrp-Set-X-n459-lkh/0.lkh1.tour" ... done
* 620: Cost = 0_2519621, Time = 13.99 sec. 
Writing OUTPUT_TOUR_FILE: "baseline_results/cvrp_lkh/Vrp-Set-X-n459/Vrp-Set-X-n459-lkh/0.lkh1.tour" ... done
* 633: Cost = 0_2518608, Time = 14.31 sec. 
Writing OUTPUT_TOUR_FILE: "baseline_results/cvrp_lkh/Vrp-Set-X-n459/Vrp-Set-X-n459-lkh/0.lkh1.tour" ... done
* 664: Cost = 0_2518235, Time = 14.86 sec. 
Writing OUTPUT_TOUR_FILE: "baseline_results/cvrp_lkh/Vrp-Set-X-n459/Vrp-Set-X-n459-lkh/0.lkh1.tour" ... done
* 675: Cost = 0_2516410, Time = 15.10 sec. 
Writing OUTPUT_TOUR_FILE: "baseline_results/cvrp_lkh/Vrp-Set-X-n459/Vrp-Set-X-n459-lkh/0.lkh1.tour" ... done
* 680: Cost = 0_2516344, Time = 15.14 sec. 
Writing OUTPUT_TOUR_FILE: "baseline_results/cvrp_lkh/Vrp-Set-X-n459/Vrp-Set-X-n459-lkh/0.lkh1.tour" ... done
* 723: Cost = 0_2515170, Time = 16.06 sec. 
Writing OUTPUT_TOUR_FILE: "baseline_results/cvrp_lkh/Vrp-Set-X-n459/Vrp-Set-X-n459-lkh/0.lkh1.tour" ... done
* 771: Cost = 0_2514254, Time = 17.44 sec. 
Writing OUTPUT_TOUR_FILE: "baseline_results/cvrp_lkh/Vrp-Set-X-n459/Vrp-Set-X-n459-lkh/0.lkh1.tour" ... done
* 807: Cost = 0_2513762, Time = 18.39 sec. 
Writing OUTPUT_TOUR_FILE: "baseline_results/cvrp_lkh/Vrp-Set-X-n459/Vrp-Set-X-n459-lkh/0.lkh1.tour" ... done
* 820: Cost = 0_2512870, Time = 18.57 sec. 
Writing OUTPUT_TOUR_FILE: "baseline_results/cvrp_lkh/Vrp-Set-X-n459/Vrp-Set-X-n459-lkh/0.lkh1.tour" ... done
* 863: Cost = 0_2512722, Time = 19.50 sec. 
Writing OUTPUT_TOUR_FILE: "baseline_results/cvrp_lkh/Vrp-Set-X-n459/Vrp-Set-X-n459-lkh/0.lkh1.tour" ... done
* 906: Cost = 0_2512441, Time = 20.64 sec. 
Writing OUTPUT_TOUR_FILE: "baseline_results/cvrp_lkh/Vrp-Set-X-n459/Vrp-Set-X-n459-lkh/0.lkh1.tour" ... done
* 914: Cost = 0_2512114, Time = 20.77 sec. 
Writing OUTPUT_TOUR_FILE: "baseline_results/cvrp_lkh/Vrp-Set-X-n459/Vrp-Set-X-n459-lkh/0.lkh1.tour" ... done
* 916: Cost = 0_2511765, Time = 20.78 sec. 
Writing OUTPUT_TOUR_FILE: "baseline_results/cvrp_lkh/Vrp-Set-X-n459/Vrp-Set-X-n459-lkh/0.lkh1.tour" ... done
* 965: Cost = 0_2511160, Time = 21.90 sec. 
Writing OUTPUT_TOUR_FILE: "baseline_results/cvrp_lkh/Vrp-Set-X-n459/Vrp-Set-X-n459-lkh/0.lkh1.tour" ... done
* 966: Cost = 0_2511065, Time = 21.94 sec. 
Writing OUTPUT_TOUR_FILE: "baseline_results/cvrp_lkh/Vrp-Set-X-n459/Vrp-Set-X-n459-lkh/0.lkh1.tour" ... done
* 990: Cost = 0_2511061, Time = 22.43 sec. 
Writing OUTPUT_TOUR_FILE: "baseline_results/cvrp_lkh/Vrp-Set-X-n459/Vrp-Set-X-n459-lkh/0.lkh1.tour" ... done
* 1002: Cost = 0_2510660, Time = 22.78 sec. 
Writing OUTPUT_TOUR_FILE: "baseline_results/cvrp_lkh/Vrp-Set-X-n459/Vrp-Set-X-n459-lkh/0.lkh1.tour" ... done
* 1010: Cost = 0_2510342, Time = 22.97 sec. 
Writing OUTPUT_TOUR_FILE: "baseline_results/cvrp_lkh/Vrp-Set-X-n459/Vrp-Set-X-n459-lkh/0.lkh1.tour" ... done
* 1088: Cost = 0_2509751, Time = 24.56 sec. 
Writing OUTPUT_TOUR_FILE: "baseline_results/cvrp_lkh/Vrp-Set-X-n459/Vrp-Set-X-n459-lkh/0.lkh1.tour" ... done
* 1167: Cost = 0_2509646, Time = 26.29 sec. 
Writing OUTPUT_TOUR_FILE: "baseline_results/cvrp_lkh/Vrp-Set-X-n459/Vrp-Set-X-n459-lkh/0.lkh1.tour" ... done
* 1170: Cost = 0_2509626, Time = 26.32 sec. 
Writing OUTPUT_TOUR_FILE: "baseline_results/cvrp_lkh/Vrp-Set-X-n459/Vrp-Set-X-n459-lkh/0.lkh1.tour" ... done
* 1196: Cost = 0_2509217, Time = 26.70 sec. 
Writing OUTPUT_TOUR_FILE: "baseline_results/cvrp_lkh/Vrp-Set-X-n459/Vrp-Set-X-n459-lkh/0.lkh1.tour" ... done
* 1207: Cost = 0_2507447, Time = 26.92 sec. 
Writing OUTPUT_TOUR_FILE: "baseline_results/cvrp_lkh/Vrp-Set-X-n459/Vrp-Set-X-n459-lkh/0.lkh1.tour" ... done
* 1229: Cost = 0_2506747, Time = 27.46 sec. 
Writing OUTPUT_TOUR_FILE: "baseline_results/cvrp_lkh/Vrp-Set-X-n459/Vrp-Set-X-n459-lkh/0.lkh1.tour" ... done
* 1278: Cost = 0_2506746, Time = 28.34 sec. 
Writing OUTPUT_TOUR_FILE: "baseline_results/cvrp_lkh/Vrp-Set-X-n459/Vrp-Set-X-n459-lkh/0.lkh1.tour" ... done
* 1287: Cost = 0_2506477, Time = 28.55 sec. 
Writing OUTPUT_TOUR_FILE: "baseline_results/cvrp_lkh/Vrp-Set-X-n459/Vrp-Set-X-n459-lkh/0.lkh1.tour" ... done
* 1339: Cost = 0_2506391, Time = 29.65 sec. 
Writing OUTPUT_TOUR_FILE: "baseline_results/cvrp_lkh/Vrp-Set-X-n459/Vrp-Set-X-n459-lkh/0.lkh1.tour" ... done
* 1507: Cost = 0_2506375, Time = 33.10 sec. 
Writing OUTPUT_TOUR_FILE: "baseline_results/cvrp_lkh/Vrp-Set-X-n459/Vrp-Set-X-n459-lkh/0.lkh1.tour" ... done
* 1551: Cost = 0_2506311, Time = 33.98 sec. 
Writing OUTPUT_TOUR_FILE: "baseline_results/cvrp_lkh/Vrp-Set-X-n459/Vrp-Set-X-n459-lkh/0.lkh1.tour" ... done
* 1552: Cost = 0_2506180, Time = 33.99 sec. 
Writing OUTPUT_TOUR_FILE: "baseline_results/cvrp_lkh/Vrp-Set-X-n459/Vrp-Set-X-n459-lkh/0.lkh1.tour" ... done
* 1554: Cost = 0_2505959, Time = 34.01 sec. 
Writing OUTPUT_TOUR_FILE: "baseline_results/cvrp_lkh/Vrp-Set-X-n459/Vrp-Set-X-n459-lkh/0.lkh1.tour" ... done
* 1593: Cost = 0_2505890, Time = 34.59 sec. 
Writing OUTPUT_TOUR_FILE: "baseline_results/cvrp_lkh/Vrp-Set-X-n459/Vrp-Set-X-n459-lkh/0.lkh1.tour" ... done
* 1730: Cost = 0_2504980, Time = 37.61 sec. 
Writing OUTPUT_TOUR_FILE: "baseline_results/cvrp_lkh/Vrp-Set-X-n459/Vrp-Set-X-n459-lkh/0.lkh1.tour" ... done
* 1755: Cost = 0_2504376, Time = 38.14 sec. 
Writing OUTPUT_TOUR_FILE: "baseline_results/cvrp_lkh/Vrp-Set-X-n459/Vrp-Set-X-n459-lkh/0.lkh1.tour" ... done
* 1770: Cost = 0_2502678, Time = 38.39 sec. 
Writing OUTPUT_TOUR_FILE: "baseline_results/cvrp_lkh/Vrp-Set-X-n459/Vrp-Set-X-n459-lkh/0.lkh1.tour" ... done
* 1843: Cost = 0_2502523, Time = 40.26 sec. 
Writing OUTPUT_TOUR_FILE: "baseline_results/cvrp_lkh/Vrp-Set-X-n459/Vrp-Set-X-n459-lkh/0.lkh1.tour" ... done
* 1857: Cost = 0_2500289, Time = 40.60 sec. 
Writing OUTPUT_TOUR_FILE: "baseline_results/cvrp_lkh/Vrp-Set-X-n459/Vrp-Set-X-n459-lkh/0.lkh1.tour" ... done
* 1890: Cost = 0_2499380, Time = 41.25 sec. 
Writing OUTPUT_TOUR_FILE: "baseline_results/cvrp_lkh/Vrp-Set-X-n459/Vrp-Set-X-n459-lkh/0.lkh1.tour" ... done
* 1891: Cost = 0_2499345, Time = 41.25 sec. 
Writing OUTPUT_TOUR_FILE: "baseline_results/cvrp_lkh/Vrp-Set-X-n459/Vrp-Set-X-n459-lkh/0.lkh1.tour" ... done
* 1895: Cost = 0_2498811, Time = 41.34 sec. 
Writing OUTPUT_TOUR_FILE: "baseline_results/cvrp_lkh/Vrp-Set-X-n459/Vrp-Set-X-n459-lkh/0.lkh1.tour" ... done
* 1898: Cost = 0_2495987, Time = 41.42 sec. 
Writing OUTPUT_TOUR_FILE: "baseline_results/cvrp_lkh/Vrp-Set-X-n459/Vrp-Set-X-n459-lkh/0.lkh1.tour" ... done
* 1901: Cost = 0_2495595, Time = 41.44 sec. 
Writing OUTPUT_TOUR_FILE: "baseline_results/cvrp_lkh/Vrp-Set-X-n459/Vrp-Set-X-n459-lkh/0.lkh1.tour" ... done
* 1975: Cost = 0_2495393, Time = 42.77 sec. 
Writing OUTPUT_TOUR_FILE: "baseline_results/cvrp_lkh/Vrp-Set-X-n459/Vrp-Set-X-n459-lkh/0.lkh1.tour" ... done
* 2026: Cost = 0_2494870, Time = 43.82 sec. 
Writing OUTPUT_TOUR_FILE: "baseline_results/cvrp_lkh/Vrp-Set-X-n459/Vrp-Set-X-n459-lkh/0.lkh1.tour" ... done
* 2066: Cost = 0_2494442, Time = 44.51 sec. 
Writing OUTPUT_TOUR_FILE: "baseline_results/cvrp_lkh/Vrp-Set-X-n459/Vrp-Set-X-n459-lkh/0.lkh1.tour" ... done
* 3075: Cost = 0_2493805, Time = 64.55 sec. 
Writing OUTPUT_TOUR_FILE: "baseline_results/cvrp_lkh/Vrp-Set-X-n459/Vrp-Set-X-n459-lkh/0.lkh1.tour" ... done
* 4164: Cost = 0_2493735, Time = 83.90 sec. 
Writing OUTPUT_TOUR_FILE: "baseline_results/cvrp_lkh/Vrp-Set-X-n459/Vrp-Set-X-n459-lkh/0.lkh1.tour" ... done
* 4437: Cost = 0_2493606, Time = 90.05 sec. 
Writing OUTPUT_TOUR_FILE: "baseline_results/cvrp_lkh/Vrp-Set-X-n459/Vrp-Set-X-n459-lkh/0.lkh1.tour" ... done
* 4619: Cost = 0_2493408, Time = 93.93 sec. 
Writing OUTPUT_TOUR_FILE: "baseline_results/cvrp_lkh/Vrp-Set-X-n459/Vrp-Set-X-n459-lkh/0.lkh1.tour" ... done
* 4739: Cost = 0_2491766, Time = 96.34 sec. 
Writing OUTPUT_TOUR_FILE: "baseline_results/cvrp_lkh/Vrp-Set-X-n459/Vrp-Set-X-n459-lkh/0.lkh1.tour" ... done
* 6430: Cost = 0_2491600, Time = 131.32 sec. 
Writing OUTPUT_TOUR_FILE: "baseline_results/cvrp_lkh/Vrp-Set-X-n459/Vrp-Set-X-n459-lkh/0.lkh1.tour" ... done
* 6473: Cost = 0_2491531, Time = 132.21 sec. 
Writing OUTPUT_TOUR_FILE: "baseline_results/cvrp_lkh/Vrp-Set-X-n459/Vrp-Set-X-n459-lkh/0.lkh1.tour" ... done
* 7586: Cost = 0_2491444, Time = 157.30 sec. 
Writing OUTPUT_TOUR_FILE: "baseline_results/cvrp_lkh/Vrp-Set-X-n459/Vrp-Set-X-n459-lkh/0.lkh1.tour" ... done
Population:
  1: 0_2491444
Run 1: Cost = 0_2491444, Time = 211.16 sec. 

Successes/Runs = 0/1 
Cost.min = 2491444, Cost.avg = 2491444.00, Cost.max = 2491444
Gap.min = 0.0000%, Gap.avg = 0.0000%, Gap.max = 0.0000%
Penalty.min = 0, Penalty.avg = 0.00, Penalty.max = 0
Trials.min = 10000, Trials.avg = 10000.0, Trials.max = 10000
Time.min = 211.16 sec., Time.avg = 211.16 sec., Time.max = 211.16 sec.
Time.total = 211.41 sec.
  Size.min = 14, Size.max = 35, Penalty = 0
  Cost.min = 51339, Cost.max = 153340, Cost.sum = 2491444
Best CVRP solution:
  Cost = 0_2491444

