experiment/data/lkh-res/Vrp-Set-X-n459/Vrp-Set-X-n459-lkh/0.lkh1.tour
NAME : 0.2491444.tour
COMMENT : Length = 2491444
COMMENT : Found by LKH-3 [Keld Helsgaun] Tue Apr  9 08:27:33 2024
TYPE : TOUR
DIMENSION : 484
TOUR_SECTION
1
279
328
226
299
42
227
53
258
99
141
441
321
332
446
482
71
389
204
126
151
179
102
22
291
367
52
448
13
331
384
460
326
330
382
406
235
394
24
337
188
161
315
347
458
176
106
455
47
55
380
146
186
390
231
416
368
216
225
49
233
163
228
418
27
456
100
466
140
2
177
241
70
76
98
338
251
307
351
110
432
124
411
475
423
245
436
65
108
118
112
217
398
341
157
6
207
127
130
468
150
211
95
172
192
119
218
44
262
386
21
58
23
12
469
36
165
214
344
60
350
196
64
324
125
377
371
37
268
359
479
402
220
160
63
438
164
240
329
365
158
236
323
342
294
138
480
421
54
224
287
109
145
408
288
86
345
319
428
113
212
481
223
252
265
26
56
238
276
77
201
373
149
14
264
197
429
437
120
426
154
393
117
372
476
302
205
440
451
136
419
266
209
219
74
18
296
410
447
471
256
41
243
360
334
400
388
454
363
114
79
273
457
17
68
462
401
387
43
51
335
443
383
397
244
84
132
399
305
66
234
464
78
282
445
133
167
417
374
103
73
32
147
19
449
88
92
484
31
101
348
403
309
143
293
274
38
298
317
137
208
80
472
239
59
362
271
25
94
116
247
442
425
415
343
178
183
190
483
180
459
175
9
152
97
283
33
346
270
162
195
349
306
169
232
477
194
87
353
142
193
174
159
285
301
369
364
250
431
81
4
376
465
385
105
90
213
131
300
267
171
202
422
375
57
355
260
318
222
156
311
263
439
62
30
450
314
407
467
135
269
28
336
286
83
378
361
198
303
61
82
289
93
11
461
257
48
139
261
35
370
340
320
242
85
155
275
310
122
434
182
46
297
8
356
478
381
89
272
308
412
379
189
430
96
357
185
278
111
435
414
16
34
173
396
20
128
259
104
107
246
284
166
181
470
366
45
277
313
5
295
405
187
184
75
15
115
354
72
453
253
229
230
292
206
121
427
420
148
237
352
39
144
391
170
281
463
10
409
199
203
40
333
69
404
123
395
325
134
7
168
248
473
444
304
316
210
254
50
327
392
358
452
413
67
339
29
290
474
221
215
191
153
249
255
280
200
322
91
129
433
3
312
424
-1
EOF
